NAME : morphed23-5-4
COMMENT : Generated using the function morphInstances from the R-package netgen (Bossek,2015) - Number of clusters: 5 Alpha: 0.5
TYPE : TSP
DIMENSION : 23
EDGE_WEIGHT_TYPE : EUC_2D
NODE_COORD_SECTION
1 52.0679148814 51.47893933
2 1.0394654376 38.8367046461
3 31.6038776275 84.998041978
4 17.1189557007 35.9884419255
5 73.2517832695 81.3268951794
6 33.6949712608 53.1745562144
7 67.2602111677 62.0668007845
8 80.2058113801 66.8590196568
9 92.1964110833 25.4811706477
10 23.834326244 88.4211948127
11 74.1810824881 68.9200411047
12 34.6671567271 50.9894236631
13 23.7436250114 93.8800422595
14 93.5633613524 37.5404124497
15 38.4448126769 66.2728435858
16 46.0519690441 44.8777209369
17 95.0737860355 3.641163013
18 61.4543670518 87.4621815357
19 94.7052613264 20.8578875716
20 71.1929084871 65.3664996793
21 43.838850209 19.9281654324
22 83.3119411308 84.6068705695
23 31.0630275547 4.4176881785
EOF
